p cnf 200 1110
-101 22 0
-101 42 0
-101 24 0
-101 -66 0
-101 -6 0
-101 -13 0
-101 -21 0
-101 65 0
-101 -20 0
-101 92 0
101 -22 -42 -24 66 6 13 21 -65 20 -92 0
-102 -40 0
-102 -97 0
-102 -78 0
-102 -25 0
-102 -71 0
-102 -75 0
-102 27 0
-102 -68 0
-102 -77 0
-102 11 0
102 40 97 78 25 71 75 -27 68 77 -11 0
-103 -50 0
-103 -25 0
-103 -65 0
-103 -64 0
-103 -92 0
-103 48 0
-103 66 0
-103 11 0
-103 -97 0
-103 -26 0
103 50 25 65 64 92 -48 -66 -11 97 26 0
-104 50 0
-104 -21 0
-104 96 0
-104 46 0
-104 97 0
-104 -76 0
-104 37 0
-104 35 0
-104 61 0
-104 -16 0
104 -50 21 -96 -46 -97 76 -37 -35 -61 16 0
-105 3 0
-105 -90 0
-105 30 0
-105 -31 0
-105 24 0
-105 -18 0
-105 -48 0
-105 55 0
-105 57 0
-105 66 0
105 -3 90 -30 31 -24 18 48 -55 -57 -66 0
-106 49 0
-106 -36 0
-106 -85 0
-106 7 0
-106 -30 0
-106 88 0
-106 65 0
-106 8 0
-106 54 0
-106 -56 0
106 -49 36 85 -7 30 -88 -65 -8 -54 56 0
-107 6 0
-107 30 0
-107 100 0
-107 86 0
-107 12 0
-107 -94 0
-107 92 0
-107 51 0
-107 27 0
-107 -20 0
107 -6 -30 -100 -86 -12 94 -92 -51 -27 20 0
-108 66 0
-108 44 0
-108 65 0
-108 -84 0
-108 68 0
-108 -11 0
-108 -96 0
-108 71 0
-108 -34 0
-108 5 0
108 -66 -44 -65 84 -68 11 96 -71 34 -5 0
-109 -35 0
-109 -39 0
-109 61 0
-109 2 0
-109 22 0
-109 64 0
-109 -55 0
-109 -33 0
-109 72 0
-109 99 0
109 35 39 -61 -2 -22 -64 55 33 -72 -99 0
-110 47 0
-110 83 0
-110 -94 0
-110 -67 0
-110 55 0
-110 21 0
-110 7 0
-110 -14 0
-110 -26 0
-110 -92 0
110 -47 -83 94 67 -55 -21 -7 14 26 92 0
101 102 103 104 105 106 107 108 109 110 0
-111 20 0
-111 77 0
-111 86 0
-111 -93 0
-111 57 0
-111 14 0
-111 42 0
-111 -49 0
-111 -51 0
-111 52 0
111 -20 -77 -86 93 -57 -14 -42 49 51 -52 0
-112 -32 0
-112 -25 0
-112 -98 0
-112 -77 0
-112 13 0
-112 10 0
-112 -66 0
-112 -9 0
-112 -42 0
-112 20 0
112 32 25 98 77 -13 -10 66 9 42 -20 0
-113 22 0
-113 96 0
-113 33 0
-113 -91 0
-113 59 0
-113 -57 0
-113 60 0
-113 -49 0
-113 93 0
-113 -67 0
113 -22 -96 -33 91 -59 57 -60 49 -93 67 0
-114 -98 0
-114 94 0
-114 18 0
-114 20 0
-114 -68 0
-114 -29 0
-114 88 0
-114 90 0
-114 41 0
-114 86 0
114 98 -94 -18 -20 68 29 -88 -90 -41 -86 0
-115 85 0
-115 60 0
-115 -20 0
-115 -28 0
-115 -41 0
-115 99 0
-115 -36 0
-115 -98 0
-115 81 0
-115 -70 0
115 -85 -60 20 28 41 -99 36 98 -81 70 0
-116 -2 0
-116 88 0
-116 -57 0
-116 12 0
-116 76 0
-116 -36 0
-116 -55 0
-116 51 0
-116 -70 0
-116 71 0
116 2 -88 57 -12 -76 36 55 -51 70 -71 0
-117 -24 0
-117 84 0
-117 -54 0
-117 -67 0
-117 51 0
-117 -68 0
-117 -30 0
-117 -52 0
-117 85 0
-117 -42 0
117 24 -84 54 67 -51 68 30 52 -85 42 0
-118 14 0
-118 -33 0
-118 -13 0
-118 39 0
-118 -28 0
-118 -17 0
-118 76 0
-118 48 0
-118 -23 0
-118 36 0
118 -14 33 13 -39 28 17 -76 -48 23 -36 0
-119 11 0
-119 24 0
-119 7 0
-119 25 0
-119 -33 0
-119 -88 0
-119 69 0
-119 -87 0
-119 -56 0
-119 -92 0
119 -11 -24 -7 -25 33 88 -69 87 56 92 0
-120 -17 0
-120 79 0
-120 85 0
-120 -9 0
-120 21 0
-120 57 0
-120 -11 0
-120 63 0
-120 1 0
-120 32 0
120 17 -79 -85 9 -21 -57 11 -63 -1 -32 0
111 112 113 114 115 116 117 118 119 120 0
-121 -97 0
-121 -35 0
-121 -55 0
-121 -10 0
-121 -7 0
-121 -100 0
-121 3 0
-121 -92 0
-121 -89 0
-121 -42 0
121 97 35 55 10 7 100 -3 92 89 42 0
-122 -74 0
-122 -26 0
-122 -76 0
-122 -3 0
-122 94 0
-122 84 0
-122 -50 0
-122 70 0
-122 -14 0
-122 -46 0
122 74 26 76 3 -94 -84 50 -70 14 46 0
-123 -8 0
-123 -49 0
-123 13 0
-123 -30 0
-123 -2 0
-123 39 0
-123 11 0
-123 -52 0
-123 -75 0
-123 76 0
123 8 49 -13 30 2 -39 -11 52 75 -76 0
-124 -36 0
-124 -14 0
-124 -67 0
-124 -6 0
-124 9 0
-124 46 0
-124 19 0
-124 -48 0
-124 -76 0
-124 -97 0
124 36 14 67 6 -9 -46 -19 48 76 97 0
-125 65 0
-125 74 0
-125 56 0
-125 87 0
-125 34 0
-125 58 0
-125 68 0
-125 91 0
-125 61 0
-125 -70 0
125 -65 -74 -56 -87 -34 -58 -68 -91 -61 70 0
-126 87 0
-126 9 0
-126 -23 0
-126 29 0
-126 -6 0
-126 28 0
-126 -78 0
-126 -49 0
-126 35 0
-126 19 0
126 -87 -9 23 -29 6 -28 78 49 -35 -19 0
-127 36 0
-127 -7 0
-127 -10 0
-127 78 0
-127 64 0
-127 -80 0
-127 -63 0
-127 -4 0
-127 45 0
-127 -32 0
127 -36 7 10 -78 -64 80 63 4 -45 32 0
-128 89 0
-128 -39 0
-128 3 0
-128 -42 0
-128 59 0
-128 -77 0
-128 -43 0
-128 -97 0
-128 46 0
-128 95 0
128 -89 39 -3 42 -59 77 43 97 -46 -95 0
-129 55 0
-129 22 0
-129 27 0
-129 -61 0
-129 68 0
-129 13 0
-129 12 0
-129 91 0
-129 -10 0
-129 7 0
129 -55 -22 -27 61 -68 -13 -12 -91 10 -7 0
-130 -64 0
-130 48 0
-130 -52 0
-130 74 0
-130 45 0
-130 -98 0
-130 99 0
-130 -26 0
-130 14 0
-130 83 0
130 64 -48 52 -74 -45 98 -99 26 -14 -83 0
121 122 123 124 125 126 127 128 129 130 0
-131 -67 0
-131 -89 0
-131 88 0
-131 -99 0
-131 68 0
-131 -38 0
-131 -69 0
-131 -28 0
-131 -71 0
-131 53 0
131 67 89 -88 99 -68 38 69 28 71 -53 0
-132 69 0
-132 33 0
-132 -49 0
-132 -12 0
-132 17 0
-132 -24 0
-132 -21 0
-132 -42 0
-132 30 0
-132 -86 0
132 -69 -33 49 12 -17 24 21 42 -30 86 0
-133 6 0
-133 -77 0
-133 -82 0
-133 44 0
-133 -12 0
-133 -32 0
-133 51 0
-133 -80 0
-133 -100 0
-133 -31 0
133 -6 77 82 -44 12 32 -51 80 100 31 0
-134 37 0
-134 -19 0
-134 45 0
-134 -75 0
-134 -66 0
-134 50 0
-134 83 0
-134 -80 0
-134 -49 0
-134 67 0
134 -37 19 -45 75 66 -50 -83 80 49 -67 0
-135 -18 0
-135 -91 0
-135 -25 0
-135 34 0
-135 45 0
-135 56 0
-135 76 0
-135 -66 0
-135 -72 0
-135 -78 0
135 18 91 25 -34 -45 -56 -76 66 72 78 0
-136 -23 0
-136 51 0
-136 72 0
-136 -68 0
-136 -74 0
-136 -40 0
-136 12 0
-136 63 0
-136 -58 0
-136 24 0
136 23 -51 -72 68 74 40 -12 -63 58 -24 0
-137 -80 0
-137 -66 0
-137 20 0
-137 -22 0
-137 18 0
-137 60 0
-137 -49 0
-137 50 0
-137 -61 0
-137 59 0
137 80 66 -20 22 -18 -60 49 -50 61 -59 0
-138 1 0
-138 -91 0
-138 67 0
-138 -64 0
-138 -98 0
-138 -45 0
-138 -12 0
-138 -59 0
-138 80 0
-138 54 0
138 -1 91 -67 64 98 45 12 59 -80 -54 0
-139 -43 0
-139 22 0
-139 20 0
-139 -19 0
-139 -25 0
-139 -90 0
-139 27 0
-139 -89 0
-139 46 0
-139 -23 0
139 43 -22 -20 19 25 90 -27 89 -46 23 0
-140 -45 0
-140 -30 0
-140 1 0
-140 37 0
-140 -44 0
-140 87 0
-140 22 0
-140 14 0
-140 76 0
-140 69 0
140 45 30 -1 -37 44 -87 -22 -14 -76 -69 0
131 132 133 134 135 136 137 138 139 140 0
-141 -88 0
-141 78 0
-141 -54 0
-141 -81 0
-141 33 0
-141 37 0
-141 -6 0
-141 61 0
-141 18 0
-141 -96 0
141 88 -78 54 81 -33 -37 6 -61 -18 96 0
-142 -49 0
-142 -46 0
-142 -56 0
-142 -13 0
-142 62 0
-142 -28 0
-142 11 0
-142 27 0
-142 -25 0
-142 29 0
142 49 46 56 13 -62 28 -11 -27 25 -29 0
-143 11 0
-143 31 0
-143 3 0
-143 30 0
-143 -7 0
-143 -5 0
-143 -23 0
-143 89 0
-143 -39 0
-143 -86 0
143 -11 -31 -3 -30 7 5 23 -89 39 86 0
-144 -93 0
-144 67 0
-144 -87 0
-144 -9 0
-144 91 0
-144 -28 0
-144 -83 0
-144 -96 0
-144 12 0
-144 -20 0
144 93 -67 87 9 -91 28 83 96 -12 20 0
-145 -42 0
-145 -37 0
-145 -95 0
-145 -73 0
-145 -21 0
-145 -63 0
-145 -90 0
-145 52 0
-145 75 0
-145 8 0
145 42 37 95 73 21 63 90 -52 -75 -8 0
-146 -5 0
-146 87 0
-146 -64 0
-146 -70 0
-146 -21 0
-146 -65 0
-146 72 0
-146 -60 0
-146 31 0
-146 91 0
146 5 -87 64 70 21 65 -72 60 -31 -91 0
-147 -35 0
-147 15 0
-147 93 0
-147 -27 0
-147 16 0
-147 79 0
-147 81 0
-147 29 0
-147 -83 0
-147 -38 0
147 35 -15 -93 27 -16 -79 -81 -29 83 38 0
-148 -75 0
-148 -83 0
-148 -21 0
-148 53 0
-148 -93 0
-148 23 0
-148 4 0
-148 -80 0
-148 10 0
-148 25 0
148 75 83 21 -53 93 -23 -4 80 -10 -25 0
-149 45 0
-149 56 0
-149 61 0
-149 46 0
-149 48 0
-149 -76 0
-149 -77 0
-149 -54 0
-149 24 0
-149 -94 0
149 -45 -56 -61 -46 -48 76 77 54 -24 94 0
-150 28 0
-150 15 0
-150 14 0
-150 80 0
-150 17 0
-150 89 0
-150 52 0
-150 29 0
-150 -56 0
-150 43 0
150 -28 -15 -14 -80 -17 -89 -52 -29 56 -43 0
141 142 143 144 145 146 147 148 149 150 0
-151 95 0
-151 -23 0
-151 20 0
-151 -33 0
-151 38 0
-151 -6 0
-151 -61 0
-151 -85 0
-151 -3 0
-151 37 0
151 -95 23 -20 33 -38 6 61 85 3 -37 0
-152 10 0
-152 66 0
-152 45 0
-152 62 0
-152 -86 0
-152 -53 0
-152 73 0
-152 85 0
-152 -95 0
-152 -71 0
152 -10 -66 -45 -62 86 53 -73 -85 95 71 0
-153 -77 0
-153 91 0
-153 88 0
-153 -82 0
-153 54 0
-153 -71 0
-153 68 0
-153 67 0
-153 93 0
-153 -66 0
153 77 -91 -88 82 -54 71 -68 -67 -93 66 0
-154 14 0
-154 12 0
-154 -91 0
-154 -84 0
-154 37 0
-154 -16 0
-154 78 0
-154 -98 0
-154 83 0
-154 -76 0
154 -14 -12 91 84 -37 16 -78 98 -83 76 0
-155 92 0
-155 68 0
-155 -35 0
-155 26 0
-155 -11 0
-155 -74 0
-155 8 0
-155 29 0
-155 -66 0
-155 -36 0
155 -92 -68 35 -26 11 74 -8 -29 66 36 0
-156 26 0
-156 -57 0
-156 -92 0
-156 -47 0
-156 85 0
-156 -89 0
-156 61 0
-156 -7 0
-156 39 0
-156 10 0
156 -26 57 92 47 -85 89 -61 7 -39 -10 0
-157 -70 0
-157 -25 0
-157 -57 0
-157 92 0
-157 -69 0
-157 -93 0
-157 14 0
-157 -9 0
-157 100 0
-157 66 0
157 70 25 57 -92 69 93 -14 9 -100 -66 0
-158 65 0
-158 44 0
-158 64 0
-158 -50 0
-158 -8 0
-158 91 0
-158 56 0
-158 -37 0
-158 -67 0
-158 -30 0
158 -65 -44 -64 50 8 -91 -56 37 67 30 0
-159 85 0
-159 66 0
-159 -73 0
-159 81 0
-159 41 0
-159 -75 0
-159 88 0
-159 -94 0
-159 74 0
-159 20 0
159 -85 -66 73 -81 -41 75 -88 94 -74 -20 0
-160 -67 0
-160 82 0
-160 -42 0
-160 -12 0
-160 -44 0
-160 22 0
-160 10 0
-160 -97 0
-160 -8 0
-160 84 0
160 67 -82 42 12 44 -22 -10 97 8 -84 0
151 152 153 154 155 156 157 158 159 160 0
-161 -66 0
-161 -100 0
-161 -75 0
-161 92 0
-161 -37 0
-161 -10 0
-161 26 0
-161 67 0
-161 7 0
-161 65 0
161 66 100 75 -92 37 10 -26 -67 -7 -65 0
-162 -47 0
-162 69 0
-162 60 0
-162 24 0
-162 2 0
-162 -33 0
-162 -67 0
-162 61 0
-162 -53 0
-162 83 0
162 47 -69 -60 -24 -2 33 67 -61 53 -83 0
-163 29 0
-163 75 0
-163 -85 0
-163 -38 0
-163 33 0
-163 55 0
-163 53 0
-163 46 0
-163 99 0
-163 94 0
163 -29 -75 85 38 -33 -55 -53 -46 -99 -94 0
-164 80 0
-164 -12 0
-164 -34 0
-164 86 0
-164 -18 0
-164 82 0
-164 -51 0
-164 -78 0
-164 64 0
-164 94 0
164 -80 12 34 -86 18 -82 51 78 -64 -94 0
-165 37 0
-165 -9 0
-165 -33 0
-165 3 0
-165 -53 0
-165 31 0
-165 81 0
-165 -29 0
-165 65 0
-165 5 0
165 -37 9 33 -3 53 -31 -81 29 -65 -5 0
-166 34 0
-166 -92 0
-166 55 0
-166 19 0
-166 2 0
-166 86 0
-166 96 0
-166 1 0
-166 -6 0
-166 70 0
166 -34 92 -55 -19 -2 -86 -96 -1 6 -70 0
-167 -31 0
-167 -20 0
-167 -79 0
-167 5 0
-167 -57 0
-167 -16 0
-167 85 0
-167 -21 0
-167 80 0
-167 90 0
167 31 20 79 -5 57 16 -85 21 -80 -90 0
-168 -65 0
-168 -30 0
-168 6 0
-168 -72 0
-168 28 0
-168 -7 0
-168 -44 0
-168 77 0
-168 -48 0
-168 91 0
168 65 30 -6 72 -28 7 44 -77 48 -91 0
-169 38 0
-169 -84 0
-169 -71 0
-169 -50 0
-169 -87 0
-169 -14 0
-169 5 0
-169 19 0
-169 6 0
-169 43 0
169 -38 84 71 50 87 14 -5 -19 -6 -43 0
-170 48 0
-170 -21 0
-170 34 0
-170 -99 0
-170 -79 0
-170 -75 0
-170 -35 0
-170 10 0
-170 -97 0
-170 -70 0
170 -48 21 -34 99 79 75 35 -10 97 70 0
161 162 163 164 165 166 167 168 169 170 0
-171 60 0
-171 -55 0
-171 -14 0
-171 38 0
-171 -78 0
-171 89 0
-171 18 0
-171 9 0
-171 36 0
-171 81 0
171 -60 55 14 -38 78 -89 -18 -9 -36 -81 0
-172 -38 0
-172 20 0
-172 -31 0
-172 53 0
-172 2 0
-172 -24 0
-172 -67 0
-172 -49 0
-172 -15 0
-172 -10 0
172 38 -20 31 -53 -2 24 67 49 15 10 0
-173 -4 0
-173 -90 0
-173 22 0
-173 89 0
-173 68 0
-173 67 0
-173 76 0
-173 24 0
-173 30 0
-173 97 0
173 4 90 -22 -89 -68 -67 -76 -24 -30 -97 0
-174 52 0
-174 -83 0
-174 -71 0
-174 -12 0
-174 -25 0
-174 -55 0
-174 -88 0
-174 62 0
-174 -95 0
-174 -23 0
174 -52 83 71 12 25 55 88 -62 95 23 0
-175 68 0
-175 72 0
-175 -35 0
-175 99 0
-175 -89 0
-175 66 0
-175 -37 0
-175 4 0
-175 -64 0
-175 -6 0
175 -68 -72 35 -99 89 -66 37 -4 64 6 0
-176 15 0
-176 -45 0
-176 -52 0
-176 -17 0
-176 29 0
-176 -49 0
-176 12 0
-176 -30 0
-176 16 0
-176 72 0
176 -15 45 52 17 -29 49 -12 30 -16 -72 0
-177 -65 0
-177 32 0
-177 57 0
-177 -37 0
-177 47 0
-177 89 0
-177 29 0
-177 -27 0
-177 49 0
-177 15 0
177 65 -32 -57 37 -47 -89 -29 27 -49 -15 0
-178 52 0
-178 61 0
-178 36 0
-178 88 0
-178 -40 0
-178 -96 0
-178 -10 0
-178 -47 0
-178 13 0
-178 49 0
178 -52 -61 -36 -88 40 96 10 47 -13 -49 0
-179 48 0
-179 -18 0
-179 -96 0
-179 5 0
-179 86 0
-179 92 0
-179 9 0
-179 39 0
-179 -75 0
-179 -77 0
179 -48 18 96 -5 -86 -92 -9 -39 75 77 0
-180 -82 0
-180 42 0
-180 -7 0
-180 -43 0
-180 71 0
-180 -69 0
-180 31 0
-180 41 0
-180 98 0
-180 -84 0
180 82 -42 7 43 -71 69 -31 -41 -98 84 0
171 172 173 174 175 176 177 178 179 180 0
-181 97 0
-181 -72 0
-181 -29 0
-181 -39 0
-181 -57 0
-181 96 0
-181 32 0
-181 69 0
-181 -86 0
-181 28 0
181 -97 72 29 39 57 -96 -32 -69 86 -28 0
-182 -3 0
-182 61 0
-182 -19 0
-182 -92 0
-182 30 0
-182 -67 0
-182 -42 0
-182 83 0
-182 -91 0
-182 28 0
182 3 -61 19 92 -30 67 42 -83 91 -28 0
-183 43 0
-183 15 0
-183 -19 0
-183 -18 0
-183 86 0
-183 60 0
-183 29 0
-183 2 0
-183 -11 0
-183 -22 0
183 -43 -15 19 18 -86 -60 -29 -2 11 22 0
-184 -4 0
-184 -50 0
-184 -90 0
-184 -33 0
-184 63 0
-184 71 0
-184 -38 0
-184 42 0
-184 -84 0
-184 -82 0
184 4 50 90 33 -63 -71 38 -42 84 82 0
-185 -47 0
-185 13 0
-185 -63 0
-185 7 0
-185 25 0
-185 22 0
-185 86 0
-185 -10 0
-185 48 0
-185 -94 0
185 47 -13 63 -7 -25 -22 -86 10 -48 94 0
-186 -56 0
-186 -31 0
-186 8 0
-186 45 0
-186 83 0
-186 39 0
-186 -28 0
-186 99 0
-186 12 0
-186 4 0
186 56 31 -8 -45 -83 -39 28 -99 -12 -4 0
-187 53 0
-187 -40 0
-187 -35 0
-187 7 0
-187 21 0
-187 66 0
-187 30 0
-187 -48 0
-187 94 0
-187 36 0
187 -53 40 35 -7 -21 -66 -30 48 -94 -36 0
-188 69 0
-188 11 0
-188 94 0
-188 81 0
-188 8 0
-188 -3 0
-188 66 0
-188 -57 0
-188 -73 0
-188 -79 0
188 -69 -11 -94 -81 -8 3 -66 57 73 79 0
-189 -17 0
-189 -32 0
-189 -29 0
-189 -71 0
-189 47 0
-189 -30 0
-189 60 0
-189 54 0
-189 -28 0
-189 33 0
189 17 32 29 71 -47 30 -60 -54 28 -33 0
-190 95 0
-190 -39 0
-190 29 0
-190 -15 0
-190 3 0
-190 5 0
-190 75 0
-190 10 0
-190 53 0
-190 56 0
190 -95 39 -29 15 -3 -5 -75 -10 -53 -56 0
181 182 183 184 185 186 187 188 189 190 0
-191 39 0
-191 -21 0
-191 -48 0
-191 41 0
-191 4 0
-191 70 0
-191 -56 0
-191 -52 0
-191 -6 0
-191 47 0
191 -39 21 48 -41 -4 -70 56 52 6 -47 0
-192 -87 0
-192 -98 0
-192 56 0
-192 70 0
-192 -80 0
-192 -29 0
-192 -1 0
-192 50 0
-192 89 0
-192 6 0
192 87 98 -56 -70 80 29 1 -50 -89 -6 0
-193 73 0
-193 -25 0
-193 97 0
-193 -39 0
-193 -72 0
-193 81 0
-193 40 0
-193 -55 0
-193 -58 0
-193 -29 0
193 -73 25 -97 39 72 -81 -40 55 58 29 0
-194 -12 0
-194 27 0
-194 99 0
-194 -26 0
-194 43 0
-194 5 0
-194 33 0
-194 -29 0
-194 42 0
-194 1 0
194 12 -27 -99 26 -43 -5 -33 29 -42 -1 0
-195 75 0
-195 93 0
-195 -30 0
-195 26 0
-195 82 0
-195 38 0
-195 -50 0
-195 7 0
-195 52 0
-195 -11 0
195 -75 -93 30 -26 -82 -38 50 -7 -52 11 0
-196 -57 0
-196 -43 0
-196 87 0
-196 77 0
-196 10 0
-196 27 0
-196 -44 0
-196 -39 0
-196 79 0
-196 -96 0
196 57 43 -87 -77 -10 -27 44 39 -79 96 0
-197 -22 0
-197 -19 0
-197 81 0
-197 -63 0
-197 -21 0
-197 95 0
-197 28 0
-197 59 0
-197 -57 0
-197 23 0
197 22 19 -81 63 21 -95 -28 -59 57 -23 0
-198 -85 0
-198 16 0
-198 -51 0
-198 70 0
-198 -49 0
-198 -83 0
-198 -32 0
-198 -74 0
-198 -69 0
-198 -2 0
198 85 -16 51 -70 49 83 32 74 69 2 0
-199 26 0
-199 -11 0
-199 57 0
-199 -46 0
-199 68 0
-199 21 0
-199 -27 0
-199 -32 0
-199 15 0
-199 4 0
199 -26 11 -57 46 -68 -21 27 32 -15 -4 0
-200 -79 0
-200 90 0
-200 29 0
-200 97 0
-200 -2 0
-200 -61 0
-200 -23 0
-200 -51 0
-200 -5 0
-200 15 0
200 79 -90 -29 -97 2 61 23 51 5 -15 0
191 192 193 194 195 196 197 198 199 200 0
